c dimacs generated by FastEx
c f501 66
c f510 65
c f511 64
c f601 69
c f610 68
c f611 67
c f701 72
c f710 71
c f711 70
c g51 46
c g61 47
c g71 48
c s51 49
c s52 50
c s53 51
c s54 52
c s61 53
c s62 54
c s63 55
c s64 56
c s65 57
c s71 58
c s72 59
c s73 60
c s74 61
c s75 62
c s76 63
c x51 1
c x510 10
c x511 11
c x512 12
c x513 13
c x514 14
c x515 15
c x52 2
c x53 3
c x54 4
c x55 5
c x56 6
c x57 7
c x58 8
c x59 9
c x61 16
c x610 25
c x611 26
c x612 27
c x613 28
c x614 29
c x615 30
c x62 17
c x63 18
c x64 19
c x65 20
c x66 21
c x67 22
c x68 23
c x69 24
c x71 31
c x710 40
c x711 41
c x712 42
c x713 43
c x714 44
c x715 45
c x72 32
c x73 33
c x74 34
c x75 35
c x76 36
c x77 37
c x78 38
c x79 39
p cnf 72 1322
-49 -50 -1 0
-49 -50 -2 0
-49 -50 -3 0
-49 -50 4 -66 0
-49 -50 -4 66 0
-49 -50 5 -66 0
-49 -50 -5 66 0
-49 -50 6 -66 0
-49 -50 -6 66 0
-49 -50 7 -66 0
-49 -50 -7 66 0
-49 -50 8 -65 0
-49 -50 -8 65 0
-49 -50 9 -65 0
-49 -50 -9 65 0
-49 -50 10 -65 0
-49 -50 -10 65 0
-49 -50 11 -65 0
-49 -50 -11 65 0
-49 -50 12 -64 0
-49 -50 -12 64 0
-49 -50 13 -64 0
-49 -50 -13 64 0
-49 -50 14 -64 0
-49 -50 -14 64 0
-49 -50 15 -64 0
-49 -50 -15 64 0
-49 -51 -1 0
-49 -51 2 -66 0
-49 -51 -2 66 0
-49 -51 3 -66 0
-49 -51 -3 66 0
-49 -51 -4 0
-49 -51 -5 0
-49 -51 6 -66 0
-49 -51 -6 66 0
-49 -51 7 -66 0
-49 -51 -7 66 0
-49 -51 8 -65 0
-49 -51 -8 65 0
-49 -51 9 -65 0
-49 -51 -9 65 0
-49 -51 10 -64 0
-49 -51 -10 64 0
-49 -51 11 -64 0
-49 -51 -11 64 0
-49 -51 12 -65 0
-49 -51 -12 65 0
-49 -51 13 -65 0
-49 -51 -13 65 0
-49 -51 14 -64 0
-49 -51 -14 64 0
-49 -51 15 -64 0
-49 -51 -15 64 0
-50 -51 -1 0
-50 -51 2 -66 0
-50 -51 -2 66 0
-50 -51 3 -66 0
-50 -51 -3 66 0
-50 -51 4 -65 0
-50 -51 -4 65 0
-50 -51 5 -65 0
-50 -51 -5 65 0
-50 -51 6 -64 0
-50 -51 -6 64 0
-50 -51 7 -64 0
-50 -51 -7 64 0
-50 -51 -8 0
-50 -51 -9 0
-50 -51 10 -66 0
-50 -51 -10 66 0
-50 -51 11 -66 0
-50 -51 -11 66 0
-50 -51 12 -65 0
-50 -51 -12 65 0
-50 -51 13 -65 0
-50 -51 -13 65 0
-50 -51 14 -64 0
-50 -51 -14 64 0
-50 -51 15 -64 0
-50 -51 -15 64 0
-49 -52 1 -66 0
-49 -52 -1 66 0
-49 -52 -2 0
-49 -52 3 -66 0
-49 -52 -3 66 0
-49 -52 -4 0
-49 -52 5 -66 0
-49 -52 -5 66 0
-49 -52 -6 0
-49 -52 7 -66 0
-49 -52 -7 66 0
-49 -52 8 -65 0
-49 -52 -8 65 0
-49 -52 9 -64 0
-49 -52 -9 64 0
-49 -52 10 -65 0
-49 -52 -10 65 0
-49 -52 11 -64 0
-49 -52 -11 64 0
-49 -52 12 -65 0
-49 -52 -12 65 0
-49 -52 13 -64 0
-49 -52 -13 64 0
-49 -52 14 -65 0
-49 -52 -14 65 0
-49 -52 15 -64 0
-49 -52 -15 64 0
-50 -52 1 -66 0
-50 -52 -1 66 0
-50 -52 -2 0
-50 -52 3 -66 0
-50 -52 -3 66 0
-50 -52 4 -65 0
-50 -52 -4 65 0
-50 -52 5 -64 0
-50 -52 -5 64 0
-50 -52 6 -65 0
-50 -52 -6 65 0
-50 -52 7 -64 0
-50 -52 -7 64 0
-50 -52 -8 0
-50 -52 9 -66 0
-50 -52 -9 66 0
-50 -52 -10 0
-50 -52 11 -66 0
-50 -52 -11 66 0
-50 -52 12 -65 0
-50 -52 -12 65 0
-50 -52 13 -64 0
-50 -52 -13 64 0
-50 -52 14 -65 0
-50 -52 -14 65 0
-50 -52 15 -64 0
-50 -52 -15 64 0
-51 -52 1 -66 0
-51 -52 -1 66 0
-51 -52 2 -65 0
-51 -52 -2 65 0
-51 -52 3 -64 0
-51 -52 -3 64 0
-51 -52 -4 0
-51 -52 5 -66 0
-51 -52 -5 66 0
-51 -52 6 -65 0
-51 -52 -6 65 0
-51 -52 7 -64 0
-51 -52 -7 64 0
-51 -52 -8 0
-51 -52 9 -66 0
-51 -52 -9 66 0
-51 -52 10 -65 0
-51 -52 -10 65 0
-51 -52 11 -64 0
-51 -52 -11 64 0
-51 -52 -12 0
-51 -52 13 -66 0
-51 -52 -13 66 0
-51 -52 14 -65 0
-51 -52 -14 65 0
-51 -52 15 -64 0
-51 -52 -15 64 0
-53 -54 -16 0
-53 -54 -17 0
-53 -54 -18 0
-53 -54 19 -69 0
-53 -54 -19 69 0
-53 -54 20 -69 0
-53 -54 -20 69 0
-53 -54 21 -69 0
-53 -54 -21 69 0
-53 -54 22 -69 0
-53 -54 -22 69 0
-53 -54 23 -68 0
-53 -54 -23 68 0
-53 -54 24 -68 0
-53 -54 -24 68 0
-53 -54 25 -68 0
-53 -54 -25 68 0
-53 -54 26 -68 0
-53 -54 -26 68 0
-53 -54 27 -67 0
-53 -54 -27 67 0
-53 -54 28 -67 0
-53 -54 -28 67 0
-53 -54 29 -67 0
-53 -54 -29 67 0
-53 -54 30 -67 0
-53 -54 -30 67 0
-53 -55 -16 0
-53 -55 17 -69 0
-53 -55 -17 69 0
-53 -55 18 -69 0
-53 -55 -18 69 0
-53 -55 -19 0
-53 -55 -20 0
-53 -55 21 -69 0
-53 -55 -21 69 0
-53 -55 22 -69 0
-53 -55 -22 69 0
-53 -55 23 -68 0
-53 -55 -23 68 0
-53 -55 24 -68 0
-53 -55 -24 68 0
-53 -55 25 -67 0
-53 -55 -25 67 0
-53 -55 26 -67 0
-53 -55 -26 67 0
-53 -55 27 -68 0
-53 -55 -27 68 0
-53 -55 28 -68 0
-53 -55 -28 68 0
-53 -55 29 -67 0
-53 -55 -29 67 0
-53 -55 30 -67 0
-53 -55 -30 67 0
-54 -55 -16 0
-54 -55 17 -69 0
-54 -55 -17 69 0
-54 -55 18 -69 0
-54 -55 -18 69 0
-54 -55 19 -68 0
-54 -55 -19 68 0
-54 -55 20 -68 0
-54 -55 -20 68 0
-54 -55 21 -67 0
-54 -55 -21 67 0
-54 -55 22 -67 0
-54 -55 -22 67 0
-54 -55 -23 0
-54 -55 -24 0
-54 -55 25 -69 0
-54 -55 -25 69 0
-54 -55 26 -69 0
-54 -55 -26 69 0
-54 -55 27 -68 0
-54 -55 -27 68 0
-54 -55 28 -68 0
-54 -55 -28 68 0
-54 -55 29 -67 0
-54 -55 -29 67 0
-54 -55 30 -67 0
-54 -55 -30 67 0
-53 -56 16 -69 0
-53 -56 -16 69 0
-53 -56 -17 0
-53 -56 18 -69 0
-53 -56 -18 69 0
-53 -56 -19 0
-53 -56 20 -69 0
-53 -56 -20 69 0
-53 -56 -21 0
-53 -56 22 -69 0
-53 -56 -22 69 0
-53 -56 23 -68 0
-53 -56 -23 68 0
-53 -56 24 -67 0
-53 -56 -24 67 0
-53 -56 25 -68 0
-53 -56 -25 68 0
-53 -56 26 -67 0
-53 -56 -26 67 0
-53 -56 27 -68 0
-53 -56 -27 68 0
-53 -56 28 -67 0
-53 -56 -28 67 0
-53 -56 29 -68 0
-53 -56 -29 68 0
-53 -56 30 -67 0
-53 -56 -30 67 0
-54 -56 16 -69 0
-54 -56 -16 69 0
-54 -56 -17 0
-54 -56 18 -69 0
-54 -56 -18 69 0
-54 -56 19 -68 0
-54 -56 -19 68 0
-54 -56 20 -67 0
-54 -56 -20 67 0
-54 -56 21 -68 0
-54 -56 -21 68 0
-54 -56 22 -67 0
-54 -56 -22 67 0
-54 -56 -23 0
-54 -56 24 -69 0
-54 -56 -24 69 0
-54 -56 -25 0
-54 -56 26 -69 0
-54 -56 -26 69 0
-54 -56 27 -68 0
-54 -56 -27 68 0
-54 -56 28 -67 0
-54 -56 -28 67 0
-54 -56 29 -68 0
-54 -56 -29 68 0
-54 -56 30 -67 0
-54 -56 -30 67 0
-55 -56 16 -69 0
-55 -56 -16 69 0
-55 -56 17 -68 0
-55 -56 -17 68 0
-55 -56 18 -67 0
-55 -56 -18 67 0
-55 -56 -19 0
-55 -56 20 -69 0
-55 -56 -20 69 0
-55 -56 21 -68 0
-55 -56 -21 68 0
-55 -56 22 -67 0
-55 -56 -22 67 0
-55 -56 -23 0
-55 -56 24 -69 0
-55 -56 -24 69 0
-55 -56 25 -68 0
-55 -56 -25 68 0
-55 -56 26 -67 0
-55 -56 -26 67 0
-55 -56 -27 0
-55 -56 28 -69 0
-55 -56 -28 69 0
-55 -56 29 -68 0
-55 -56 -29 68 0
-55 -56 30 -67 0
-55 -56 -30 67 0
-53 -57 16 -1 -69 0
-53 -57 -16 -1 69 0
-53 -57 -16 1 0
-53 -57 17 -2 -69 0
-53 -57 -17 -2 69 0
-53 -57 -17 2 0
-53 -57 18 -3 -69 0
-53 -57 -18 -3 69 0
-53 -57 -18 3 0
-53 -57 19 -4 -69 0
-53 -57 -19 -4 69 0
-53 -57 -19 4 0
-53 -57 20 -5 -69 0
-53 -57 -20 -5 69 0
-53 -57 -20 5 0
-53 -57 21 -6 -69 0
-53 -57 -21 -6 69 0
-53 -57 -21 6 0
-53 -57 22 -7 -69 0
-53 -57 -22 -7 69 0
-53 -57 -22 7 0
-53 -57 23 8 -68 0
-53 -57 23 -8 -67 0
-53 -57 -23 8 68 0
-53 -57 -23 -8 67 0
-53 -57 24 9 -68 0
-53 -57 24 -9 -67 0
-53 -57 -24 9 68 0
-53 -57 -24 -9 67 0
-53 -57 25 10 -68 0
-53 -57 25 -10 -67 0
-53 -57 -25 10 68 0
-53 -57 -25 -10 67 0
-53 -57 26 11 -68 0
-53 -57 26 -11 -67 0
-53 -57 -26 11 68 0
-53 -57 -26 -11 67 0
-53 -57 27 12 -68 0
-53 -57 27 -12 -67 0
-53 -57 -27 12 68 0
-53 -57 -27 -12 67 0
-53 -57 28 13 -68 0
-53 -57 28 -13 -67 0
-53 -57 -28 13 68 0
-53 -57 -28 -13 67 0
-53 -57 29 14 -68 0
-53 -57 29 -14 -67 0
-53 -57 -29 14 68 0
-53 -57 -29 -14 67 0
-53 -57 30 15 -68 0
-53 -57 30 -15 -67 0
-53 -57 -30 15 68 0
-53 -57 -30 -15 67 0
-54 -57 16 -1 -69 0
-54 -57 -16 -1 69 0
-54 -57 -16 1 0
-54 -57 17 -2 -69 0
-54 -57 -17 -2 69 0
-54 -57 -17 2 0
-54 -57 18 -3 -69 0
-54 -57 -18 -3 69 0
-54 -57 -18 3 0
-54 -57 19 4 -68 0
-54 -57 19 -4 -67 0
-54 -57 -19 4 68 0
-54 -57 -19 -4 67 0
-54 -57 20 5 -68 0
-54 -57 20 -5 -67 0
-54 -57 -20 5 68 0
-54 -57 -20 -5 67 0
-54 -57 21 6 -68 0
-54 -57 21 -6 -67 0
-54 -57 -21 6 68 0
-54 -57 -21 -6 67 0
-54 -57 22 7 -68 0
-54 -57 22 -7 -67 0
-54 -57 -22 7 68 0
-54 -57 -22 -7 67 0
-54 -57 23 -8 -69 0
-54 -57 -23 -8 69 0
-54 -57 -23 8 0
-54 -57 24 -9 -69 0
-54 -57 -24 -9 69 0
-54 -57 -24 9 0
-54 -57 25 -10 -69 0
-54 -57 -25 -10 69 0
-54 -57 -25 10 0
-54 -57 26 -11 -69 0
-54 -57 -26 -11 69 0
-54 -57 -26 11 0
-54 -57 27 12 -68 0
-54 -57 27 -12 -67 0
-54 -57 -27 12 68 0
-54 -57 -27 -12 67 0
-54 -57 28 13 -68 0
-54 -57 28 -13 -67 0
-54 -57 -28 13 68 0
-54 -57 -28 -13 67 0
-54 -57 29 14 -68 0
-54 -57 29 -14 -67 0
-54 -57 -29 14 68 0
-54 -57 -29 -14 67 0
-54 -57 30 15 -68 0
-54 -57 30 -15 -67 0
-54 -57 -30 15 68 0
-54 -57 -30 -15 67 0
-55 -57 16 -1 -69 0
-55 -57 -16 -1 69 0
-55 -57 -16 1 0
-55 -57 17 2 -68 0
-55 -57 17 -2 -67 0
-55 -57 -17 2 68 0
-55 -57 -17 -2 67 0
-55 -57 18 3 -68 0
-55 -57 18 -3 -67 0
-55 -57 -18 3 68 0
-55 -57 -18 -3 67 0
-55 -57 19 -4 -69 0
-55 -57 -19 -4 69 0
-55 -57 -19 4 0
-55 -57 20 -5 -69 0
-55 -57 -20 -5 69 0
-55 -57 -20 5 0
-55 -57 21 6 -68 0
-55 -57 21 -6 -67 0
-55 -57 -21 6 68 0
-55 -57 -21 -6 67 0
-55 -57 22 7 -68 0
-55 -57 22 -7 -67 0
-55 -57 -22 7 68 0
-55 -57 -22 -7 67 0
-55 -57 23 -8 -69 0
-55 -57 -23 -8 69 0
-55 -57 -23 8 0
-55 -57 24 -9 -69 0
-55 -57 -24 -9 69 0
-55 -57 -24 9 0
-55 -57 25 10 -68 0
-55 -57 25 -10 -67 0
-55 -57 -25 10 68 0
-55 -57 -25 -10 67 0
-55 -57 26 11 -68 0
-55 -57 26 -11 -67 0
-55 -57 -26 11 68 0
-55 -57 -26 -11 67 0
-55 -57 27 -12 -69 0
-55 -57 -27 -12 69 0
-55 -57 -27 12 0
-55 -57 28 -13 -69 0
-55 -57 -28 -13 69 0
-55 -57 -28 13 0
-55 -57 29 14 -68 0
-55 -57 29 -14 -67 0
-55 -57 -29 14 68 0
-55 -57 -29 -14 67 0
-55 -57 30 15 -68 0
-55 -57 30 -15 -67 0
-55 -57 -30 15 68 0
-55 -57 -30 -15 67 0
-56 -57 16 1 -68 0
-56 -57 16 -1 -67 0
-56 -57 -16 1 68 0
-56 -57 -16 -1 67 0
-56 -57 17 -2 -69 0
-56 -57 -17 -2 69 0
-56 -57 -17 2 0
-56 -57 18 3 -68 0
-56 -57 18 -3 -67 0
-56 -57 -18 3 68 0
-56 -57 -18 -3 67 0
-56 -57 19 -4 -69 0
-56 -57 -19 -4 69 0
-56 -57 -19 4 0
-56 -57 20 5 -68 0
-56 -57 20 -5 -67 0
-56 -57 -20 5 68 0
-56 -57 -20 -5 67 0
-56 -57 21 -6 -69 0
-56 -57 -21 -6 69 0
-56 -57 -21 6 0
-56 -57 22 7 -68 0
-56 -57 22 -7 -67 0
-56 -57 -22 7 68 0
-56 -57 -22 -7 67 0
-56 -57 23 -8 -69 0
-56 -57 -23 -8 69 0
-56 -57 -23 8 0
-56 -57 24 9 -68 0
-56 -57 24 -9 -67 0
-56 -57 -24 9 68 0
-56 -57 -24 -9 67 0
-56 -57 25 -10 -69 0
-56 -57 -25 -10 69 0
-56 -57 -25 10 0
-56 -57 26 11 -68 0
-56 -57 26 -11 -67 0
-56 -57 -26 11 68 0
-56 -57 -26 -11 67 0
-56 -57 27 -12 -69 0
-56 -57 -27 -12 69 0
-56 -57 -27 12 0
-56 -57 28 13 -68 0
-56 -57 28 -13 -67 0
-56 -57 -28 13 68 0
-56 -57 -28 -13 67 0
-56 -57 29 -14 -69 0
-56 -57 -29 -14 69 0
-56 -57 -29 14 0
-56 -57 30 15 -68 0
-56 -57 30 -15 -67 0
-56 -57 -30 15 68 0
-56 -57 -30 -15 67 0
-58 -59 -31 0
-58 -59 -32 0
-58 -59 -33 0
-58 -59 34 -72 0
-58 -59 -34 72 0
-58 -59 35 -72 0
-58 -59 -35 72 0
-58 -59 36 -72 0
-58 -59 -36 72 0
-58 -59 37 -72 0
-58 -59 -37 72 0
-58 -59 38 -71 0
-58 -59 -38 71 0
-58 -59 39 -71 0
-58 -59 -39 71 0
-58 -59 40 -71 0
-58 -59 -40 71 0
-58 -59 41 -71 0
-58 -59 -41 71 0
-58 -59 42 -70 0
-58 -59 -42 70 0
-58 -59 43 -70 0
-58 -59 -43 70 0
-58 -59 44 -70 0
-58 -59 -44 70 0
-58 -59 45 -70 0
-58 -59 -45 70 0
-58 -60 -31 0
-58 -60 32 -72 0
-58 -60 -32 72 0
-58 -60 33 -72 0
-58 -60 -33 72 0
-58 -60 -34 0
-58 -60 -35 0
-58 -60 36 -72 0
-58 -60 -36 72 0
-58 -60 37 -72 0
-58 -60 -37 72 0
-58 -60 38 -71 0
-58 -60 -38 71 0
-58 -60 39 -71 0
-58 -60 -39 71 0
-58 -60 40 -70 0
-58 -60 -40 70 0
-58 -60 41 -70 0
-58 -60 -41 70 0
-58 -60 42 -71 0
-58 -60 -42 71 0
-58 -60 43 -71 0
-58 -60 -43 71 0
-58 -60 44 -70 0
-58 -60 -44 70 0
-58 -60 45 -70 0
-58 -60 -45 70 0
-59 -60 -31 0
-59 -60 32 -72 0
-59 -60 -32 72 0
-59 -60 33 -72 0
-59 -60 -33 72 0
-59 -60 34 -71 0
-59 -60 -34 71 0
-59 -60 35 -71 0
-59 -60 -35 71 0
-59 -60 36 -70 0
-59 -60 -36 70 0
-59 -60 37 -70 0
-59 -60 -37 70 0
-59 -60 -38 0
-59 -60 -39 0
-59 -60 40 -72 0
-59 -60 -40 72 0
-59 -60 41 -72 0
-59 -60 -41 72 0
-59 -60 42 -71 0
-59 -60 -42 71 0
-59 -60 43 -71 0
-59 -60 -43 71 0
-59 -60 44 -70 0
-59 -60 -44 70 0
-59 -60 45 -70 0
-59 -60 -45 70 0
-58 -61 31 -72 0
-58 -61 -31 72 0
-58 -61 -32 0
-58 -61 33 -72 0
-58 -61 -33 72 0
-58 -61 -34 0
-58 -61 35 -72 0
-58 -61 -35 72 0
-58 -61 -36 0
-58 -61 37 -72 0
-58 -61 -37 72 0
-58 -61 38 -71 0
-58 -61 -38 71 0
-58 -61 39 -70 0
-58 -61 -39 70 0
-58 -61 40 -71 0
-58 -61 -40 71 0
-58 -61 41 -70 0
-58 -61 -41 70 0
-58 -61 42 -71 0
-58 -61 -42 71 0
-58 -61 43 -70 0
-58 -61 -43 70 0
-58 -61 44 -71 0
-58 -61 -44 71 0
-58 -61 45 -70 0
-58 -61 -45 70 0
-59 -61 31 -72 0
-59 -61 -31 72 0
-59 -61 -32 0
-59 -61 33 -72 0
-59 -61 -33 72 0
-59 -61 34 -71 0
-59 -61 -34 71 0
-59 -61 35 -70 0
-59 -61 -35 70 0
-59 -61 36 -71 0
-59 -61 -36 71 0
-59 -61 37 -70 0
-59 -61 -37 70 0
-59 -61 -38 0
-59 -61 39 -72 0
-59 -61 -39 72 0
-59 -61 -40 0
-59 -61 41 -72 0
-59 -61 -41 72 0
-59 -61 42 -71 0
-59 -61 -42 71 0
-59 -61 43 -70 0
-59 -61 -43 70 0
-59 -61 44 -71 0
-59 -61 -44 71 0
-59 -61 45 -70 0
-59 -61 -45 70 0
-60 -61 31 -72 0
-60 -61 -31 72 0
-60 -61 32 -71 0
-60 -61 -32 71 0
-60 -61 33 -70 0
-60 -61 -33 70 0
-60 -61 -34 0
-60 -61 35 -72 0
-60 -61 -35 72 0
-60 -61 36 -71 0
-60 -61 -36 71 0
-60 -61 37 -70 0
-60 -61 -37 70 0
-60 -61 -38 0
-60 -61 39 -72 0
-60 -61 -39 72 0
-60 -61 40 -71 0
-60 -61 -40 71 0
-60 -61 41 -70 0
-60 -61 -41 70 0
-60 -61 -42 0
-60 -61 43 -72 0
-60 -61 -43 72 0
-60 -61 44 -71 0
-60 -61 -44 71 0
-60 -61 45 -70 0
-60 -61 -45 70 0
-58 -62 31 -1 -72 0
-58 -62 -31 -1 72 0
-58 -62 -31 1 0
-58 -62 32 -2 -72 0
-58 -62 -32 -2 72 0
-58 -62 -32 2 0
-58 -62 33 -3 -72 0
-58 -62 -33 -3 72 0
-58 -62 -33 3 0
-58 -62 34 -4 -72 0
-58 -62 -34 -4 72 0
-58 -62 -34 4 0
-58 -62 35 -5 -72 0
-58 -62 -35 -5 72 0
-58 -62 -35 5 0
-58 -62 36 -6 -72 0
-58 -62 -36 -6 72 0
-58 -62 -36 6 0
-58 -62 37 -7 -72 0
-58 -62 -37 -7 72 0
-58 -62 -37 7 0
-58 -62 38 8 -71 0
-58 -62 38 -8 -70 0
-58 -62 -38 8 71 0
-58 -62 -38 -8 70 0
-58 -62 39 9 -71 0
-58 -62 39 -9 -70 0
-58 -62 -39 9 71 0
-58 -62 -39 -9 70 0
-58 -62 40 10 -71 0
-58 -62 40 -10 -70 0
-58 -62 -40 10 71 0
-58 -62 -40 -10 70 0
-58 -62 41 11 -71 0
-58 -62 41 -11 -70 0
-58 -62 -41 11 71 0
-58 -62 -41 -11 70 0
-58 -62 42 12 -71 0
-58 -62 42 -12 -70 0
-58 -62 -42 12 71 0
-58 -62 -42 -12 70 0
-58 -62 43 13 -71 0
-58 -62 43 -13 -70 0
-58 -62 -43 13 71 0
-58 -62 -43 -13 70 0
-58 -62 44 14 -71 0
-58 -62 44 -14 -70 0
-58 -62 -44 14 71 0
-58 -62 -44 -14 70 0
-58 -62 45 15 -71 0
-58 -62 45 -15 -70 0
-58 -62 -45 15 71 0
-58 -62 -45 -15 70 0
-59 -62 31 -1 -72 0
-59 -62 -31 -1 72 0
-59 -62 -31 1 0
-59 -62 32 -2 -72 0
-59 -62 -32 -2 72 0
-59 -62 -32 2 0
-59 -62 33 -3 -72 0
-59 -62 -33 -3 72 0
-59 -62 -33 3 0
-59 -62 34 4 -71 0
-59 -62 34 -4 -70 0
-59 -62 -34 4 71 0
-59 -62 -34 -4 70 0
-59 -62 35 5 -71 0
-59 -62 35 -5 -70 0
-59 -62 -35 5 71 0
-59 -62 -35 -5 70 0
-59 -62 36 6 -71 0
-59 -62 36 -6 -70 0
-59 -62 -36 6 71 0
-59 -62 -36 -6 70 0
-59 -62 37 7 -71 0
-59 -62 37 -7 -70 0
-59 -62 -37 7 71 0
-59 -62 -37 -7 70 0
-59 -62 38 -8 -72 0
-59 -62 -38 -8 72 0
-59 -62 -38 8 0
-59 -62 39 -9 -72 0
-59 -62 -39 -9 72 0
-59 -62 -39 9 0
-59 -62 40 -10 -72 0
-59 -62 -40 -10 72 0
-59 -62 -40 10 0
-59 -62 41 -11 -72 0
-59 -62 -41 -11 72 0
-59 -62 -41 11 0
-59 -62 42 12 -71 0
-59 -62 42 -12 -70 0
-59 -62 -42 12 71 0
-59 -62 -42 -12 70 0
-59 -62 43 13 -71 0
-59 -62 43 -13 -70 0
-59 -62 -43 13 71 0
-59 -62 -43 -13 70 0
-59 -62 44 14 -71 0
-59 -62 44 -14 -70 0
-59 -62 -44 14 71 0
-59 -62 -44 -14 70 0
-59 -62 45 15 -71 0
-59 -62 45 -15 -70 0
-59 -62 -45 15 71 0
-59 -62 -45 -15 70 0
-60 -62 31 -1 -72 0
-60 -62 -31 -1 72 0
-60 -62 -31 1 0
-60 -62 32 2 -71 0
-60 -62 32 -2 -70 0
-60 -62 -32 2 71 0
-60 -62 -32 -2 70 0
-60 -62 33 3 -71 0
-60 -62 33 -3 -70 0
-60 -62 -33 3 71 0
-60 -62 -33 -3 70 0
-60 -62 34 -4 -72 0
-60 -62 -34 -4 72 0
-60 -62 -34 4 0
-60 -62 35 -5 -72 0
-60 -62 -35 -5 72 0
-60 -62 -35 5 0
-60 -62 36 6 -71 0
-60 -62 36 -6 -70 0
-60 -62 -36 6 71 0
-60 -62 -36 -6 70 0
-60 -62 37 7 -71 0
-60 -62 37 -7 -70 0
-60 -62 -37 7 71 0
-60 -62 -37 -7 70 0
-60 -62 38 -8 -72 0
-60 -62 -38 -8 72 0
-60 -62 -38 8 0
-60 -62 39 -9 -72 0
-60 -62 -39 -9 72 0
-60 -62 -39 9 0
-60 -62 40 10 -71 0
-60 -62 40 -10 -70 0
-60 -62 -40 10 71 0
-60 -62 -40 -10 70 0
-60 -62 41 11 -71 0
-60 -62 41 -11 -70 0
-60 -62 -41 11 71 0
-60 -62 -41 -11 70 0
-60 -62 42 -12 -72 0
-60 -62 -42 -12 72 0
-60 -62 -42 12 0
-60 -62 43 -13 -72 0
-60 -62 -43 -13 72 0
-60 -62 -43 13 0
-60 -62 44 14 -71 0
-60 -62 44 -14 -70 0
-60 -62 -44 14 71 0
-60 -62 -44 -14 70 0
-60 -62 45 15 -71 0
-60 -62 45 -15 -70 0
-60 -62 -45 15 71 0
-60 -62 -45 -15 70 0
-61 -62 31 1 -71 0
-61 -62 31 -1 -70 0
-61 -62 -31 1 71 0
-61 -62 -31 -1 70 0
-61 -62 32 -2 -72 0
-61 -62 -32 -2 72 0
-61 -62 -32 2 0
-61 -62 33 3 -71 0
-61 -62 33 -3 -70 0
-61 -62 -33 3 71 0
-61 -62 -33 -3 70 0
-61 -62 34 -4 -72 0
-61 -62 -34 -4 72 0
-61 -62 -34 4 0
-61 -62 35 5 -71 0
-61 -62 35 -5 -70 0
-61 -62 -35 5 71 0
-61 -62 -35 -5 70 0
-61 -62 36 -6 -72 0
-61 -62 -36 -6 72 0
-61 -62 -36 6 0
-61 -62 37 7 -71 0
-61 -62 37 -7 -70 0
-61 -62 -37 7 71 0
-61 -62 -37 -7 70 0
-61 -62 38 -8 -72 0
-61 -62 -38 -8 72 0
-61 -62 -38 8 0
-61 -62 39 9 -71 0
-61 -62 39 -9 -70 0
-61 -62 -39 9 71 0
-61 -62 -39 -9 70 0
-61 -62 40 -10 -72 0
-61 -62 -40 -10 72 0
-61 -62 -40 10 0
-61 -62 41 11 -71 0
-61 -62 41 -11 -70 0
-61 -62 -41 11 71 0
-61 -62 -41 -11 70 0
-61 -62 42 -12 -72 0
-61 -62 -42 -12 72 0
-61 -62 -42 12 0
-61 -62 43 13 -71 0
-61 -62 43 -13 -70 0
-61 -62 -43 13 71 0
-61 -62 -43 -13 70 0
-61 -62 44 -14 -72 0
-61 -62 -44 -14 72 0
-61 -62 -44 14 0
-61 -62 45 15 -71 0
-61 -62 45 -15 -70 0
-61 -62 -45 15 71 0
-61 -62 -45 -15 70 0
-58 -63 31 -16 -72 0
-58 -63 -31 -16 72 0
-58 -63 -31 16 0
-58 -63 32 -17 -72 0
-58 -63 -32 -17 72 0
-58 -63 -32 17 0
-58 -63 33 -18 -72 0
-58 -63 -33 -18 72 0
-58 -63 -33 18 0
-58 -63 34 -19 -72 0
-58 -63 -34 -19 72 0
-58 -63 -34 19 0
-58 -63 35 -20 -72 0
-58 -63 -35 -20 72 0
-58 -63 -35 20 0
-58 -63 36 -21 -72 0
-58 -63 -36 -21 72 0
-58 -63 -36 21 0
-58 -63 37 -22 -72 0
-58 -63 -37 -22 72 0
-58 -63 -37 22 0
-58 -63 38 23 -71 0
-58 -63 38 -23 -70 0
-58 -63 -38 23 71 0
-58 -63 -38 -23 70 0
-58 -63 39 24 -71 0
-58 -63 39 -24 -70 0
-58 -63 -39 24 71 0
-58 -63 -39 -24 70 0
-58 -63 40 25 -71 0
-58 -63 40 -25 -70 0
-58 -63 -40 25 71 0
-58 -63 -40 -25 70 0
-58 -63 41 26 -71 0
-58 -63 41 -26 -70 0
-58 -63 -41 26 71 0
-58 -63 -41 -26 70 0
-58 -63 42 27 -71 0
-58 -63 42 -27 -70 0
-58 -63 -42 27 71 0
-58 -63 -42 -27 70 0
-58 -63 43 28 -71 0
-58 -63 43 -28 -70 0
-58 -63 -43 28 71 0
-58 -63 -43 -28 70 0
-58 -63 44 29 -71 0
-58 -63 44 -29 -70 0
-58 -63 -44 29 71 0
-58 -63 -44 -29 70 0
-58 -63 45 30 -71 0
-58 -63 45 -30 -70 0
-58 -63 -45 30 71 0
-58 -63 -45 -30 70 0
-59 -63 31 -16 -72 0
-59 -63 -31 -16 72 0
-59 -63 -31 16 0
-59 -63 32 -17 -72 0
-59 -63 -32 -17 72 0
-59 -63 -32 17 0
-59 -63 33 -18 -72 0
-59 -63 -33 -18 72 0
-59 -63 -33 18 0
-59 -63 34 19 -71 0
-59 -63 34 -19 -70 0
-59 -63 -34 19 71 0
-59 -63 -34 -19 70 0
-59 -63 35 20 -71 0
-59 -63 35 -20 -70 0
-59 -63 -35 20 71 0
-59 -63 -35 -20 70 0
-59 -63 36 21 -71 0
-59 -63 36 -21 -70 0
-59 -63 -36 21 71 0
-59 -63 -36 -21 70 0
-59 -63 37 22 -71 0
-59 -63 37 -22 -70 0
-59 -63 -37 22 71 0
-59 -63 -37 -22 70 0
-59 -63 38 -23 -72 0
-59 -63 -38 -23 72 0
-59 -63 -38 23 0
-59 -63 39 -24 -72 0
-59 -63 -39 -24 72 0
-59 -63 -39 24 0
-59 -63 40 -25 -72 0
-59 -63 -40 -25 72 0
-59 -63 -40 25 0
-59 -63 41 -26 -72 0
-59 -63 -41 -26 72 0
-59 -63 -41 26 0
-59 -63 42 27 -71 0
-59 -63 42 -27 -70 0
-59 -63 -42 27 71 0
-59 -63 -42 -27 70 0
-59 -63 43 28 -71 0
-59 -63 43 -28 -70 0
-59 -63 -43 28 71 0
-59 -63 -43 -28 70 0
-59 -63 44 29 -71 0
-59 -63 44 -29 -70 0
-59 -63 -44 29 71 0
-59 -63 -44 -29 70 0
-59 -63 45 30 -71 0
-59 -63 45 -30 -70 0
-59 -63 -45 30 71 0
-59 -63 -45 -30 70 0
-60 -63 31 -16 -72 0
-60 -63 -31 -16 72 0
-60 -63 -31 16 0
-60 -63 32 17 -71 0
-60 -63 32 -17 -70 0
-60 -63 -32 17 71 0
-60 -63 -32 -17 70 0
-60 -63 33 18 -71 0
-60 -63 33 -18 -70 0
-60 -63 -33 18 71 0
-60 -63 -33 -18 70 0
-60 -63 34 -19 -72 0
-60 -63 -34 -19 72 0
-60 -63 -34 19 0
-60 -63 35 -20 -72 0
-60 -63 -35 -20 72 0
-60 -63 -35 20 0
-60 -63 36 21 -71 0
-60 -63 36 -21 -70 0
-60 -63 -36 21 71 0
-60 -63 -36 -21 70 0
-60 -63 37 22 -71 0
-60 -63 37 -22 -70 0
-60 -63 -37 22 71 0
-60 -63 -37 -22 70 0
-60 -63 38 -23 -72 0
-60 -63 -38 -23 72 0
-60 -63 -38 23 0
-60 -63 39 -24 -72 0
-60 -63 -39 -24 72 0
-60 -63 -39 24 0
-60 -63 40 25 -71 0
-60 -63 40 -25 -70 0
-60 -63 -40 25 71 0
-60 -63 -40 -25 70 0
-60 -63 41 26 -71 0
-60 -63 41 -26 -70 0
-60 -63 -41 26 71 0
-60 -63 -41 -26 70 0
-60 -63 42 -27 -72 0
-60 -63 -42 -27 72 0
-60 -63 -42 27 0
-60 -63 43 -28 -72 0
-60 -63 -43 -28 72 0
-60 -63 -43 28 0
-60 -63 44 29 -71 0
-60 -63 44 -29 -70 0
-60 -63 -44 29 71 0
-60 -63 -44 -29 70 0
-60 -63 45 30 -71 0
-60 -63 45 -30 -70 0
-60 -63 -45 30 71 0
-60 -63 -45 -30 70 0
-61 -63 31 16 -71 0
-61 -63 31 -16 -70 0
-61 -63 -31 16 71 0
-61 -63 -31 -16 70 0
-61 -63 32 -17 -72 0
-61 -63 -32 -17 72 0
-61 -63 -32 17 0
-61 -63 33 18 -71 0
-61 -63 33 -18 -70 0
-61 -63 -33 18 71 0
-61 -63 -33 -18 70 0
-61 -63 34 -19 -72 0
-61 -63 -34 -19 72 0
-61 -63 -34 19 0
-61 -63 35 20 -71 0
-61 -63 35 -20 -70 0
-61 -63 -35 20 71 0
-61 -63 -35 -20 70 0
-61 -63 36 -21 -72 0
-61 -63 -36 -21 72 0
-61 -63 -36 21 0
-61 -63 37 22 -71 0
-61 -63 37 -22 -70 0
-61 -63 -37 22 71 0
-61 -63 -37 -22 70 0
-61 -63 38 -23 -72 0
-61 -63 -38 -23 72 0
-61 -63 -38 23 0
-61 -63 39 24 -71 0
-61 -63 39 -24 -70 0
-61 -63 -39 24 71 0
-61 -63 -39 -24 70 0
-61 -63 40 -25 -72 0
-61 -63 -40 -25 72 0
-61 -63 -40 25 0
-61 -63 41 26 -71 0
-61 -63 41 -26 -70 0
-61 -63 -41 26 71 0
-61 -63 -41 -26 70 0
-61 -63 42 -27 -72 0
-61 -63 -42 -27 72 0
-61 -63 -42 27 0
-61 -63 43 28 -71 0
-61 -63 43 -28 -70 0
-61 -63 -43 28 71 0
-61 -63 -43 -28 70 0
-61 -63 44 -29 -72 0
-61 -63 -44 -29 72 0
-61 -63 -44 29 0
-61 -63 45 30 -71 0
-61 -63 45 -30 -70 0
-61 -63 -45 30 71 0
-61 -63 -45 -30 70 0
-62 -63 31 1 -16 -72 0
-62 -63 31 -1 16 -71 0
-62 -63 31 -1 -16 -70 0
-62 -63 -31 1 -16 72 0
-62 -63 -31 -1 16 71 0
-62 -63 -31 -1 -16 70 0
-62 -63 -31 1 16 0
-62 -63 32 2 -17 -72 0
-62 -63 32 -2 17 -71 0
-62 -63 32 -2 -17 -70 0
-62 -63 -32 2 -17 72 0
-62 -63 -32 -2 17 71 0
-62 -63 -32 -2 -17 70 0
-62 -63 -32 2 17 0
-62 -63 33 3 -18 -72 0
-62 -63 33 -3 18 -71 0
-62 -63 33 -3 -18 -70 0
-62 -63 -33 3 -18 72 0
-62 -63 -33 -3 18 71 0
-62 -63 -33 -3 -18 70 0
-62 -63 -33 3 18 0
-62 -63 34 4 -19 -72 0
-62 -63 34 -4 19 -71 0
-62 -63 34 -4 -19 -70 0
-62 -63 -34 4 -19 72 0
-62 -63 -34 -4 19 71 0
-62 -63 -34 -4 -19 70 0
-62 -63 -34 4 19 0
-62 -63 35 5 -20 -72 0
-62 -63 35 -5 20 -71 0
-62 -63 35 -5 -20 -70 0
-62 -63 -35 5 -20 72 0
-62 -63 -35 -5 20 71 0
-62 -63 -35 -5 -20 70 0
-62 -63 -35 5 20 0
-62 -63 36 6 -21 -72 0
-62 -63 36 -6 21 -71 0
-62 -63 36 -6 -21 -70 0
-62 -63 -36 6 -21 72 0
-62 -63 -36 -6 21 71 0
-62 -63 -36 -6 -21 70 0
-62 -63 -36 6 21 0
-62 -63 37 7 -22 -72 0
-62 -63 37 -7 22 -71 0
-62 -63 37 -7 -22 -70 0
-62 -63 -37 7 -22 72 0
-62 -63 -37 -7 22 71 0
-62 -63 -37 -7 -22 70 0
-62 -63 -37 7 22 0
-62 -63 38 8 -23 -72 0
-62 -63 38 -8 23 -71 0
-62 -63 38 -8 -23 -70 0
-62 -63 -38 8 -23 72 0
-62 -63 -38 -8 23 71 0
-62 -63 -38 -8 -23 70 0
-62 -63 -38 8 23 0
-62 -63 39 9 -24 -72 0
-62 -63 39 -9 24 -71 0
-62 -63 39 -9 -24 -70 0
-62 -63 -39 9 -24 72 0
-62 -63 -39 -9 24 71 0
-62 -63 -39 -9 -24 70 0
-62 -63 -39 9 24 0
-62 -63 40 10 -25 -72 0
-62 -63 40 -10 25 -71 0
-62 -63 40 -10 -25 -70 0
-62 -63 -40 10 -25 72 0
-62 -63 -40 -10 25 71 0
-62 -63 -40 -10 -25 70 0
-62 -63 -40 10 25 0
-62 -63 41 11 -26 -72 0
-62 -63 41 -11 26 -71 0
-62 -63 41 -11 -26 -70 0
-62 -63 -41 11 -26 72 0
-62 -63 -41 -11 26 71 0
-62 -63 -41 -11 -26 70 0
-62 -63 -41 11 26 0
-62 -63 42 12 -27 -72 0
-62 -63 42 -12 27 -71 0
-62 -63 42 -12 -27 -70 0
-62 -63 -42 12 -27 72 0
-62 -63 -42 -12 27 71 0
-62 -63 -42 -12 -27 70 0
-62 -63 -42 12 27 0
-62 -63 43 13 -28 -72 0
-62 -63 43 -13 28 -71 0
-62 -63 43 -13 -28 -70 0
-62 -63 -43 13 -28 72 0
-62 -63 -43 -13 28 71 0
-62 -63 -43 -13 -28 70 0
-62 -63 -43 13 28 0
-62 -63 44 14 -29 -72 0
-62 -63 44 -14 29 -71 0
-62 -63 44 -14 -29 -70 0
-62 -63 -44 14 -29 72 0
-62 -63 -44 -14 29 71 0
-62 -63 -44 -14 -29 70 0
-62 -63 -44 14 29 0
-62 -63 45 15 -30 -72 0
-62 -63 45 -15 30 -71 0
-62 -63 45 -15 -30 -70 0
-62 -63 -45 15 -30 72 0
-62 -63 -45 -15 30 71 0
-62 -63 -45 -15 -30 70 0
-62 -63 -45 15 30 0
-46 -1 0
-46 -2 0
-46 -3 0
-46 -4 0
-46 -5 0
-46 -6 0
-46 -7 0
-46 -8 0
-46 -9 0
-46 -10 0
-46 -11 0
-46 -12 0
-46 -13 0
-46 -14 0
-46 15 0
-47 -16 0
-47 -17 0
-47 -18 0
-47 -19 0
-47 -20 0
-47 -21 0
-47 -22 0
-47 -23 0
-47 -24 0
-47 -25 0
-47 -26 0
-47 -27 0
-47 -28 0
-47 -29 0
-47 30 0
-48 -31 0
-48 -32 0
-48 -33 0
-48 -34 0
-48 -35 0
-48 -36 0
-48 -37 0
-48 -38 0
-48 -39 0
-48 -40 0
-48 -41 0
-48 -42 0
-48 -43 0
-48 -44 0
-48 45 0
46 47 48 0
50 51 52 0
49 51 52 0
-49 -50 -51 0
49 50 52 0
-49 -50 -52 0
-49 -51 -52 0
-50 -51 -52 0
49 50 51 0
54 55 56 57 0
53 55 56 57 0
-53 -54 -55 0
53 54 56 57 0
-53 -54 -56 0
-53 -55 -56 0
-54 -55 -56 0
53 54 55 57 0
-53 -54 -57 0
-53 -55 -57 0
-54 -55 -57 0
-53 -56 -57 0
-54 -56 -57 0
-55 -56 -57 0
53 54 55 56 0
59 60 61 62 63 0
58 60 61 62 63 0
-58 -59 -60 0
58 59 61 62 63 0
-58 -59 -61 0
-58 -60 -61 0
-59 -60 -61 0
58 59 60 62 63 0
-58 -59 -62 0
-58 -60 -62 0
-59 -60 -62 0
-58 -61 -62 0
-59 -61 -62 0
-60 -61 -62 0
58 59 60 61 63 0
-58 -59 -63 0
-58 -60 -63 0
-59 -60 -63 0
-58 -61 -63 0
-59 -61 -63 0
-60 -61 -63 0
-58 -62 -63 0
-59 -62 -63 0
-60 -62 -63 0
-61 -62 -63 0
58 59 60 61 62 0
